NAME : CC50.1685255.tour
COMMENT : Cost = 0_1685255
COMMENT : Found by LKH [Keld Helsgaun] Sun Apr 23 15:14:36 2017
TYPE : TOUR
DIMENSION : 104
TOUR_SECTION
1
7
57
4
54
44
94
45
95
6
56
27
77
46
31
81
96
34
24
84
21
71
2
52
74
19
69
104
41
32
82
91
13
63
5
55
3
53
48
98
50
100
15
65
40
90
9
59
103
28
78
18
38
88
68
51
101
16
66
11
61
23
73
30
80
43
93
102
35
85
36
86
33
83
8
49
58
42
92
99
14
64
47
97
20
70
37
87
22
72
29
12
79
62
17
26
67
76
25
39
75
10
89
60
-1
EOF
